c This graph is produced by Sof A. Lee
c Experiment on graph colouring using phase coupled oscillators
c Date: 18/02/2008 3:51:24 PM
p edge 14 84
e 1 9e 1 7e 1 3e 1 8e 1 6e 1 4e 1 10e 1 13e 1 12e 1 14e 1 5e 1 2e 2 12e 2 7e 2 13e 2 9e 2 10e 2 6e 2 5e 2 8e 2 11e 2 14e 2 4e 3 7e 3 9e 3 11e 3 13e 3 6e 3 5e 3 10e 3 12e 3 8e 3 4e 3 14e 4 11e 4 14e 4 10e 4 6e 4 5e 4 12e 4 13e 4 9e 4 8e 5 11e 5 10e 5 13e 5 9e 5 7e 5 12e 5 14e 5 8e 6 9e 6 11e 6 12e 6 7e 6 10e 6 13e 6 14e 6 8e 7 8e 7 14e 7 10e 7 11e 7 12e 7 13e 7 9e 8 13e 8 12e 8 9e 8 11e 8 14e 9 14e 9 13e 9 10e 9 11e 10 14e 10 13e 10 12e 10 11e 11 12e 11 13e 11 14e 12 14e 12 13
